(set-logic QF_LIA)

(echo "(-P ^ Q ^ R) V -(R V -S)")

(declare-const P Bool)
(declare-const Q Bool)
(declare-const R Bool)
(declare-const S Bool)

(define-fun satproblem () Bool
    (or
    (and (not P) Q R)
    (not (or R (not S)))
    )
)

(assert 
    satproblem
)

(check-sat)
(get-model)